
  12    4
  10   10   10   10

   0   0   0   0   0   2 2 3 
   3  10  10  10  10   3 9 6 4 
   1  10  10  10  10   2 6 5 
   7  10  10  10  10   1 5 
   9  10  10  10  10   2 8 7 
   4  10  10  10  10   2 8 7 
  10  10  10  10  10   2 11 10 
   8  10  10  10  10   1 10 
   5  10  10  10  10   1 10 
   8  10  10  10  10   1 12
   5  10  10  10  10   1 12
   0   0   0   0   0   0 
